100
31 0
14 0
10 1
25 3
21 0
7 4
6 3
12 4
37 2
9 1
30 3
36 3
4 2
0 3
34 4
3 0
36 4
41 4
9 4
1 3
18 0
23 0
20 4
23 4
12 2
15 4
21 2
27 3
13 0
27 4
32 0
15 0
29 4
0 2
19 2
19 4
22 0
15 3
3 1
5 4
39 2
7 1
37 0
38 4
24 0
16 1
31 4
11 4
14 4
28 0
22 1
10 0
29 3
30 4
40 4
16 3
37 3
7 0
1 2
21 1
32 3
43 4
10 4
19 3
19 1
34 0
37 4
31 3
13 3
40 2
43 3
16 4
43 0
28 3
9 0
24 4
28 4
11 0
43 1
22 3
27 1
4 1
1 0
16 0
33 0
23 1
43 2
1 4
33 2
42 3
22 4
20 0
42 4
29 0
33 3
10 3
27 2
4 0
3 4
12 0

